glpk/models/path10.lp
\* Problem: Path 10 - Industry *\

Minimize
 z: + 6000 x12 + 2000 x13 + 5000 x14 + 9000 x25 + 3000 x34 + 8000 x45

Subject To
 c1: - x14 - x13 - x12 = -5
 c2: - x25 + x12 = 0
 c3: - x34 + x13 = 0
 c4: - x45 + x34 + x14 = 0
 c5: + x45 + x25 = 5

Generals
 x12
 x13
 x14
 x25
 x34
 x45

End
