path10.sol
Path 10 - Industry
z = 65000.0
x12 = 0.0
x13 = 0.0
x14 = 5.0
x25 = 0.0
x34 = 0.0
x45 = 5.0
